p cnf 405 1360
1 2 3 4 0
-1 -2 0
-1 -3 0
-1 -4 0
-2 -3 0
-2 -4 0
-3 -4 0
5 -6 -7 0
6 -5 -7 0
-5 -6 7 0
6 5 7 0
-1 -7 0
6 -5 -8 0
5 -6 -8 0
8 -6 -5 0
8 6 5 0
-2 8 0
-6 9 0
-5 9 0
6 5 -9 0
6 -9 -10 0
-6 9 -10 0
-6 -9 10 0
6 9 10 0
-3 10 0
5 11 0
6 11 0
-5 -6 -11 0
-6 11 -12 0
6 -11 -12 0
12 -11 -6 0
6 11 12 0
-4 -12 0
13 -14 -15 0
14 -13 -15 0
-13 -14 15 0
14 13 15 0
-1 -15 0
14 -16 -17 0
16 -14 -17 0
17 -14 -16 0
17 14 16 0
-2 17 0
-13 18 0
-16 18 0
-19 18 0
13 16 19 -18 0
14 -18 -20 0
-14 18 -20 0
-14 -18 20 0
14 18 20 0
-3 20 0
13 21 0
16 21 0
19 21 0
-13 -16 -19 -21 0
-14 21 -22 0
14 -21 -22 0
22 -21 -14 0
14 21 22 0
-4 -22 0
16 -23 -24 0
23 -16 -24 0
-16 -23 24 0
16 23 24 0
-1 -24 0
23 -19 -25 0
19 -23 -25 0
25 -23 -19 0
25 23 19 0
-2 25 0
-16 26 0
-19 26 0
16 19 -26 0
23 -26 -27 0
-23 26 -27 0
-23 -26 27 0
23 26 27 0
-3 27 0
16 28 0
19 28 0
-16 -19 -28 0
-23 28 -29 0
23 -28 -29 0
29 -28 -23 0
23 28 29 0
-4 -29 0
19 -30 -31 0
30 -19 -31 0
-19 -30 31 0
19 30 31 0
-1 -31 0
-16 30 -32 0
16 -30 -32 0
32 -30 -16 0
32 30 16 0
-2 32 0
-19 33 0
-23 33 0
19 23 -33 0
30 -33 -34 0
-30 33 -34 0
-30 -33 34 0
30 33 34 0
-3 34 0
19 35 0
23 35 0
-19 -23 -35 0
-30 35 -36 0
30 -35 -36 0
36 -35 -30 0
30 35 36 0
-4 -36 0
37 -38 -39 0
38 -37 -39 0
-37 -38 39 0
38 37 39 0
-1 -39 0
38 -40 -41 0
40 -38 -41 0
41 -38 -40 0
41 38 40 0
-2 41 0
-13 42 0
-16 42 0
-19 42 0
-37 42 0
-40 42 0
13 16 19 37 40 -42 0
38 -42 -43 0
-38 42 -43 0
-38 -42 43 0
38 42 43 0
-3 43 0
13 44 0
16 44 0
19 44 0
37 44 0
40 44 0
-45 0
-38 44 -46 0
38 -44 -46 0
46 -44 -38 0
38 44 46 0
-4 -46 0
40 -47 -48 0
47 -40 -48 0
-40 -47 48 0
40 47 48 0
-1 -48 0
-13 47 -49 0
13 -47 -49 0
49 -47 -13 0
49 47 13 0
-2 49 0
-13 50 0
-16 50 0
-19 50 0
-40 50 0
13 16 19 40 -50 0
47 -50 -51 0
-47 50 -51 0
-47 -50 51 0
47 50 51 0
-3 51 0
13 52 0
16 52 0
19 52 0
40 52 0
-53 0
-47 52 -54 0
47 -52 -54 0
54 -52 -47 0
47 52 54 0
-4 -54 0
55 -56 -57 0
56 -55 -57 0
-55 -56 57 0
56 55 57 0
-1 -57 0
56 -58 -59 0
58 -56 -59 0
59 -56 -58 0
59 56 58 0
-2 59 0
-55 60 0
-58 60 0
-61 60 0
-62 60 0
-63 60 0
-64 60 0
55 58 61 62 63 64 -60 0
56 -60 -65 0
-56 60 -65 0
-56 -60 65 0
56 60 65 0
-3 65 0
55 66 0
58 66 0
61 66 0
62 66 0
63 66 0
64 66 0
-67 0
-56 66 -68 0
56 -66 -68 0
68 -66 -56 0
56 66 68 0
-4 -68 0
58 -69 -70 0
69 -58 -70 0
-58 -69 70 0
58 69 70 0
-1 -70 0
69 -61 -71 0
61 -69 -71 0
71 -69 -61 0
71 69 61 0
-2 71 0
-58 72 0
-61 72 0
-62 72 0
-63 72 0
-64 72 0
58 61 62 63 64 -72 0
69 -72 -73 0
-69 72 -73 0
-69 -72 73 0
69 72 73 0
-3 73 0
58 74 0
61 74 0
62 74 0
63 74 0
64 74 0
-75 0
-69 74 -76 0
69 -74 -76 0
76 -74 -69 0
69 74 76 0
-4 -76 0
61 -77 -78 0
77 -61 -78 0
-61 -77 78 0
61 77 78 0
-1 -78 0
77 -62 -79 0
62 -77 -79 0
79 -77 -62 0
79 77 62 0
-2 79 0
-61 80 0
-62 80 0
-63 80 0
-64 80 0
61 62 63 64 -80 0
77 -80 -81 0
-77 80 -81 0
-77 -80 81 0
77 80 81 0
-3 81 0
61 82 0
62 82 0
63 82 0
64 82 0
-83 0
-77 82 -84 0
77 -82 -84 0
84 -82 -77 0
77 82 84 0
-4 -84 0
62 -85 -86 0
85 -62 -86 0
-62 -85 86 0
62 85 86 0
-1 -86 0
85 -63 -87 0
63 -85 -87 0
87 -85 -63 0
87 85 63 0
-2 87 0
85 -80 -88 0
80 -85 -88 0
-80 -85 88 0
85 80 88 0
-3 88 0
82 -85 -89 0
85 -82 -89 0
89 -82 -85 0
85 82 89 0
-4 -89 0
63 -90 -91 0
90 -63 -91 0
-63 -90 91 0
63 90 91 0
-1 -91 0
90 -64 -92 0
64 -90 -92 0
92 -90 -64 0
92 90 64 0
-2 92 0
-63 93 0
-64 93 0
-61 93 0
-62 93 0
63 64 61 62 -93 0
90 -93 -94 0
-90 93 -94 0
-90 -93 94 0
90 93 94 0
-3 94 0
63 95 0
64 95 0
61 95 0
62 95 0
-96 0
-90 95 -97 0
90 -95 -97 0
97 -95 -90 0
90 95 97 0
-4 -97 0
64 -98 -99 0
98 -64 -99 0
-64 -98 99 0
64 98 99 0
-1 -99 0
-61 98 -100 0
61 -98 -100 0
100 -98 -61 0
100 98 61 0
-2 100 0
-64 101 0
-77 101 0
64 77 -101 0
98 -101 -102 0
-98 101 -102 0
-98 -101 102 0
98 101 102 0
-3 102 0
64 103 0
77 103 0
-64 -77 -103 0
-98 103 -104 0
98 -103 -104 0
104 -103 -98 0
98 103 104 0
-4 -104 0
105 -106 -107 0
106 -105 -107 0
-105 -106 107 0
106 105 107 0
-1 -107 0
106 -108 -109 0
108 -106 -109 0
109 -106 -108 0
109 106 108 0
-2 109 0
-105 110 0
-108 110 0
-111 110 0
-112 110 0
-113 110 0
-114 110 0
115 0
106 -110 -116 0
-106 110 -116 0
-106 -110 116 0
106 110 116 0
-3 116 0
105 117 0
108 117 0
111 117 0
112 117 0
113 117 0
114 117 0
-118 0
-106 117 -119 0
106 -117 -119 0
119 -117 -106 0
106 117 119 0
-4 -119 0
108 -120 -121 0
120 -108 -121 0
-108 -120 121 0
108 120 121 0
-1 -121 0
120 -111 -122 0
111 -120 -122 0
122 -120 -111 0
122 120 111 0
-2 122 0
-108 123 0
-111 123 0
-112 123 0
-113 123 0
-114 123 0
108 111 112 113 114 -123 0
120 -123 -124 0
-120 123 -124 0
-120 -123 124 0
120 123 124 0
-3 124 0
108 125 0
111 125 0
112 125 0
113 125 0
114 125 0
-126 0
-120 125 -127 0
120 -125 -127 0
127 -125 -120 0
120 125 127 0
-4 -127 0
111 -128 -129 0
128 -111 -129 0
-111 -128 129 0
111 128 129 0
-1 -129 0
128 -112 -130 0
112 -128 -130 0
130 -128 -112 0
130 128 112 0
-2 130 0
-111 131 0
-112 131 0
-113 131 0
-114 131 0
111 112 113 114 -131 0
128 -131 -132 0
-128 131 -132 0
-128 -131 132 0
128 131 132 0
-3 132 0
111 133 0
112 133 0
113 133 0
114 133 0
-134 0
-128 133 -135 0
128 -133 -135 0
135 -133 -128 0
128 133 135 0
-4 -135 0
112 -136 -137 0
136 -112 -137 0
-112 -136 137 0
112 136 137 0
-1 -137 0
136 -113 -138 0
113 -136 -138 0
138 -136 -113 0
138 136 113 0
-2 138 0
136 -131 -139 0
131 -136 -139 0
-131 -136 139 0
136 131 139 0
-3 139 0
133 -136 -140 0
136 -133 -140 0
140 -133 -136 0
136 133 140 0
-4 -140 0
113 -141 -142 0
141 -113 -142 0
-113 -141 142 0
113 141 142 0
-1 -142 0
141 -114 -143 0
114 -141 -143 0
143 -141 -114 0
143 141 114 0
-2 143 0
141 -131 -144 0
131 -141 -144 0
-131 -141 144 0
141 131 144 0
-3 144 0
133 -141 -145 0
141 -133 -145 0
145 -133 -141 0
141 133 145 0
-4 -145 0
114 -146 -147 0
146 -114 -147 0
-114 -146 147 0
114 146 147 0
-1 -147 0
-111 146 -148 0
111 -146 -148 0
148 -146 -111 0
148 146 111 0
-2 148 0
-114 149 0
-128 149 0
114 128 -149 0
146 -149 -150 0
-146 149 -150 0
-146 -149 150 0
146 149 150 0
-3 150 0
114 151 0
128 151 0
-114 -128 -151 0
-146 151 -152 0
146 -151 -152 0
152 -151 -146 0
146 151 152 0
-4 -152 0
153 -154 -155 0
154 -153 -155 0
-153 -154 155 0
154 153 155 0
-1 -155 0
154 -156 -157 0
156 -154 -157 0
157 -154 -156 0
157 154 156 0
-2 157 0
-5 158 0
-153 158 0
-156 158 0
-159 158 0
5 153 156 159 -158 0
154 -158 -160 0
-154 158 -160 0
-154 -158 160 0
154 158 160 0
-3 160 0
5 161 0
153 161 0
156 161 0
159 161 0
-162 0
-154 161 -163 0
154 -161 -163 0
163 -161 -154 0
154 161 163 0
-4 -163 0
156 -164 -165 0
164 -156 -165 0
-156 -164 165 0
156 164 165 0
-1 -165 0
164 -159 -166 0
159 -164 -166 0
166 -164 -159 0
166 164 159 0
-2 166 0
-5 167 0
-156 167 0
-159 167 0
5 156 159 -167 0
164 -167 -168 0
-164 167 -168 0
-164 -167 168 0
164 167 168 0
-3 168 0
5 169 0
156 169 0
159 169 0
-5 -156 -159 -169 0
-164 169 -170 0
164 -169 -170 0
170 -169 -164 0
164 169 170 0
-4 -170 0
159 -171 -172 0
171 -159 -172 0
-159 -171 172 0
159 171 172 0
-1 -172 0
-5 171 -173 0
5 -171 -173 0
173 -171 -5 0
173 171 5 0
-2 173 0
-5 174 0
-159 174 0
5 159 -174 0
171 -174 -175 0
-171 174 -175 0
-171 -174 175 0
171 174 175 0
-3 175 0
5 176 0
159 176 0
-5 -159 -176 0
-171 176 -177 0
171 -176 -177 0
177 -176 -171 0
171 176 177 0
-4 -177 0
178 -179 -180 0
179 -178 -180 0
-178 -179 180 0
179 178 180 0
-1 -180 0
179 -181 -182 0
181 -179 -182 0
182 -179 -181 0
182 179 181 0
-2 182 0
-178 183 0
-181 183 0
-184 183 0
-185 183 0
-186 183 0
-187 183 0
188 0
179 -183 -189 0
-179 183 -189 0
-179 -183 189 0
179 183 189 0
-3 189 0
178 190 0
181 190 0
184 190 0
185 190 0
186 190 0
187 190 0
-191 0
-179 190 -192 0
179 -190 -192 0
192 -190 -179 0
179 190 192 0
-4 -192 0
181 -193 -194 0
193 -181 -194 0
-181 -193 194 0
181 193 194 0
-1 -194 0
193 -184 -195 0
184 -193 -195 0
195 -193 -184 0
195 193 184 0
-2 195 0
-181 196 0
-184 196 0
-185 196 0
-186 196 0
-187 196 0
181 184 185 186 187 -196 0
193 -196 -197 0
-193 196 -197 0
-193 -196 197 0
193 196 197 0
-3 197 0
181 198 0
184 198 0
185 198 0
186 198 0
187 198 0
-199 0
-193 198 -200 0
193 -198 -200 0
200 -198 -193 0
193 198 200 0
-4 -200 0
184 -201 -202 0
201 -184 -202 0
-184 -201 202 0
184 201 202 0
-1 -202 0
201 -185 -203 0
185 -201 -203 0
203 -201 -185 0
203 201 185 0
-2 203 0
-184 204 0
-185 204 0
-186 204 0
-187 204 0
184 185 186 187 -204 0
201 -204 -205 0
-201 204 -205 0
-201 -204 205 0
201 204 205 0
-3 205 0
184 206 0
185 206 0
186 206 0
187 206 0
-207 0
-201 206 -208 0
201 -206 -208 0
208 -206 -201 0
201 206 208 0
-4 -208 0
185 -209 -210 0
209 -185 -210 0
-185 -209 210 0
185 209 210 0
-1 -210 0
209 -186 -211 0
186 -209 -211 0
211 -209 -186 0
211 209 186 0
-2 211 0
-185 212 0
-186 212 0
-187 212 0
185 186 187 -212 0
209 -212 -213 0
-209 212 -213 0
-209 -212 213 0
209 212 213 0
-3 213 0
185 214 0
186 214 0
187 214 0
-185 -186 -187 -214 0
-209 214 -215 0
209 -214 -215 0
215 -214 -209 0
209 214 215 0
-4 -215 0
186 -216 -217 0
216 -186 -217 0
-186 -216 217 0
186 216 217 0
-1 -217 0
216 -187 -218 0
187 -216 -218 0
218 -216 -187 0
218 216 187 0
-2 218 0
216 -212 -219 0
212 -216 -219 0
-212 -216 219 0
216 212 219 0
-3 219 0
214 -216 -220 0
216 -214 -220 0
220 -214 -216 0
216 214 220 0
-4 -220 0
187 -221 -222 0
221 -187 -222 0
-187 -221 222 0
187 221 222 0
-1 -222 0
-185 221 -223 0
185 -221 -223 0
223 -221 -185 0
223 221 185 0
-2 223 0
-187 224 0
-209 224 0
187 209 -224 0
221 -224 -225 0
-221 224 -225 0
-221 -224 225 0
221 224 225 0
-3 225 0
187 226 0
209 226 0
-187 -209 -226 0
-221 226 -227 0
221 -226 -227 0
227 -226 -221 0
221 226 227 0
-4 -227 0
228 -229 -230 0
229 -228 -230 0
-228 -229 230 0
229 228 230 0
-1 -230 0
229 -231 -232 0
231 -229 -232 0
232 -229 -231 0
232 229 231 0
-2 232 0
-5 233 0
-156 233 0
-159 233 0
-228 233 0
-231 233 0
5 156 159 228 231 -233 0
229 -233 -234 0
-229 233 -234 0
-229 -233 234 0
229 233 234 0
-3 234 0
5 235 0
156 235 0
159 235 0
228 235 0
231 235 0
-236 0
-229 235 -237 0
229 -235 -237 0
237 -235 -229 0
229 235 237 0
-4 -237 0
231 -238 -239 0
238 -231 -239 0
-231 -238 239 0
231 238 239 0
-1 -239 0
-156 238 -240 0
156 -238 -240 0
240 -238 -156 0
240 238 156 0
-2 240 0
-5 241 0
-156 241 0
-159 241 0
-231 241 0
5 156 159 231 -241 0
238 -241 -242 0
-238 241 -242 0
-238 -241 242 0
238 241 242 0
-3 242 0
5 243 0
156 243 0
159 243 0
231 243 0
-244 0
-238 243 -245 0
238 -243 -245 0
245 -243 -238 0
238 243 245 0
-4 -245 0
246 -247 -248 0
247 -246 -248 0
-246 -247 248 0
247 246 248 0
-1 -248 0
247 -249 -250 0
249 -247 -250 0
250 -247 -249 0
250 247 249 0
-2 250 0
-184 251 0
-185 251 0
-186 251 0
-187 251 0
-246 251 0
-249 251 0
252 0
247 -251 -253 0
-247 251 -253 0
-247 -251 253 0
247 251 253 0
-3 253 0
184 254 0
185 254 0
186 254 0
187 254 0
246 254 0
249 254 0
-255 0
-247 254 -256 0
247 -254 -256 0
256 -254 -247 0
247 254 256 0
-4 -256 0
249 -257 -258 0
257 -249 -258 0
-249 -257 258 0
249 257 258 0
-1 -258 0
-184 257 -259 0
184 -257 -259 0
259 -257 -184 0
259 257 184 0
-2 259 0
-184 260 0
-185 260 0
-186 260 0
-187 260 0
-249 260 0
184 185 186 187 249 -260 0
257 -260 -261 0
-257 260 -261 0
-257 -260 261 0
257 260 261 0
-3 261 0
184 262 0
185 262 0
186 262 0
187 262 0
249 262 0
-263 0
-257 262 -264 0
257 -262 -264 0
264 -262 -257 0
257 262 264 0
-4 -264 0
265 -266 -267 0
266 -265 -267 0
-265 -266 267 0
266 265 267 0
-1 -267 0
266 -268 -269 0
268 -266 -269 0
269 -266 -268 0
269 266 268 0
-2 269 0
-111 270 0
-112 270 0
-113 270 0
-114 270 0
-265 270 0
-268 270 0
-271 270 0
-272 270 0
273 0
266 -270 -274 0
-266 270 -274 0
-266 -270 274 0
266 270 274 0
-3 274 0
111 275 0
112 275 0
113 275 0
114 275 0
265 275 0
268 275 0
271 275 0
272 275 0
-276 0
-266 275 -277 0
266 -275 -277 0
277 -275 -266 0
266 275 277 0
-4 -277 0
268 -278 -279 0
278 -268 -279 0
-268 -278 279 0
268 278 279 0
-1 -279 0
278 -271 -280 0
271 -278 -280 0
280 -278 -271 0
280 278 271 0
-2 280 0
-111 281 0
-112 281 0
-113 281 0
-114 281 0
-268 281 0
-271 281 0
-272 281 0
282 0
278 -281 -283 0
-278 281 -283 0
-278 -281 283 0
278 281 283 0
-3 283 0
111 284 0
112 284 0
113 284 0
114 284 0
268 284 0
271 284 0
272 284 0
-285 0
-278 284 -286 0
278 -284 -286 0
286 -284 -278 0
278 284 286 0
-4 -286 0
271 -287 -288 0
287 -271 -288 0
-271 -287 288 0
271 287 288 0
-1 -288 0
287 -272 -289 0
272 -287 -289 0
289 -287 -272 0
289 287 272 0
-2 289 0
-111 290 0
-112 290 0
-113 290 0
-114 290 0
-271 290 0
-272 290 0
291 0
287 -290 -292 0
-287 290 -292 0
-287 -290 292 0
287 290 292 0
-3 292 0
111 293 0
112 293 0
113 293 0
114 293 0
271 293 0
272 293 0
-294 0
-287 293 -295 0
287 -293 -295 0
295 -293 -287 0
287 293 295 0
-4 -295 0
272 -296 -297 0
296 -272 -297 0
-272 -296 297 0
272 296 297 0
-1 -297 0
-112 296 -298 0
112 -296 -298 0
298 -296 -112 0
298 296 112 0
-2 298 0
-111 299 0
-112 299 0
-113 299 0
-114 299 0
-272 299 0
111 112 113 114 272 -299 0
296 -299 -300 0
-296 299 -300 0
-296 -299 300 0
296 299 300 0
-3 300 0
111 301 0
112 301 0
113 301 0
114 301 0
272 301 0
-302 0
-296 301 -303 0
296 -301 -303 0
303 -301 -296 0
296 301 303 0
-4 -303 0
304 -305 -306 0
305 -304 -306 0
-304 -305 306 0
305 304 306 0
-1 -306 0
305 -307 -308 0
307 -305 -308 0
308 -305 -307 0
308 305 307 0
-2 308 0
-16 309 0
-19 309 0
-304 309 0
-307 309 0
-310 309 0
16 19 304 307 310 -309 0
305 -309 -311 0
-305 309 -311 0
-305 -309 311 0
305 309 311 0
-3 311 0
16 312 0
19 312 0
304 312 0
307 312 0
310 312 0
-313 0
-305 312 -314 0
305 -312 -314 0
314 -312 -305 0
305 312 314 0
-4 -314 0
307 -315 -316 0
315 -307 -316 0
-307 -315 316 0
307 315 316 0
-1 -316 0
315 -310 -317 0
310 -315 -317 0
317 -315 -310 0
317 315 310 0
-2 317 0
-16 318 0
-19 318 0
-307 318 0
-310 318 0
16 19 307 310 -318 0
315 -318 -319 0
-315 318 -319 0
-315 -318 319 0
315 318 319 0
-3 319 0
16 320 0
19 320 0
307 320 0
310 320 0
-321 0
-315 320 -322 0
315 -320 -322 0
322 -320 -315 0
315 320 322 0
-4 -322 0
310 -323 -324 0
323 -310 -324 0
-310 -323 324 0
310 323 324 0
-1 -324 0
-19 323 -325 0
19 -323 -325 0
325 -323 -19 0
325 323 19 0
-2 325 0
-16 326 0
-19 326 0
-310 326 0
16 19 310 -326 0
323 -326 -327 0
-323 326 -327 0
-323 -326 327 0
323 326 327 0
-3 327 0
16 328 0
19 328 0
310 328 0
-16 -19 -310 -328 0
-323 328 -329 0
323 -328 -329 0
329 -328 -323 0
323 328 329 0
-4 -329 0
-5 330 -331 0
5 -330 -331 0
-5 -330 331 0
5 330 331 0
-331 0
-13 332 -333 0
13 -332 -333 0
-13 -332 333 0
13 332 333 0
-333 0
-16 334 -335 0
16 -334 -335 0
-16 -334 335 0
16 334 335 0
-335 0
-19 336 -337 0
19 -336 -337 0
-19 -336 337 0
19 336 337 0
-337 0
-37 338 -339 0
37 -338 -339 0
-37 -338 339 0
37 338 339 0
-339 0
-40 340 -341 0
40 -340 -341 0
-40 -340 341 0
40 340 341 0
-341 0
-55 342 -343 0
55 -342 -343 0
-55 -342 343 0
55 342 343 0
-343 0
-58 344 -345 0
58 -344 -345 0
-58 -344 345 0
58 344 345 0
-345 0
-61 346 -347 0
61 -346 -347 0
-61 -346 347 0
61 346 347 0
-347 0
-62 348 -349 0
62 -348 -349 0
-62 -348 349 0
62 348 349 0
-349 0
-63 350 -351 0
63 -350 -351 0
-63 -350 351 0
63 350 351 0
-351 0
-64 352 -353 0
64 -352 -353 0
-64 -352 353 0
64 352 353 0
-353 0
-105 354 -355 0
105 -354 -355 0
-105 -354 355 0
105 354 355 0
-355 0
-108 356 -357 0
108 -356 -357 0
-108 -356 357 0
108 356 357 0
-357 0
-111 358 -359 0
111 -358 -359 0
-111 -358 359 0
111 358 359 0
-359 0
-112 360 -361 0
112 -360 -361 0
-112 -360 361 0
112 360 361 0
-361 0
-113 362 -363 0
113 -362 -363 0
-113 -362 363 0
113 362 363 0
-363 0
-114 364 -365 0
114 -364 -365 0
-114 -364 365 0
114 364 365 0
-365 0
-153 366 -367 0
153 -366 -367 0
-153 -366 367 0
153 366 367 0
-367 0
-156 368 -369 0
156 -368 -369 0
-156 -368 369 0
156 368 369 0
-369 0
-159 370 -371 0
159 -370 -371 0
-159 -370 371 0
159 370 371 0
-371 0
-178 372 -373 0
178 -372 -373 0
-178 -372 373 0
178 372 373 0
-373 0
-181 374 -375 0
181 -374 -375 0
-181 -374 375 0
181 374 375 0
-375 0
-184 376 -377 0
184 -376 -377 0
-184 -376 377 0
184 376 377 0
-377 0
-185 378 -379 0
185 -378 -379 0
-185 -378 379 0
185 378 379 0
-379 0
-186 380 -381 0
186 -380 -381 0
-186 -380 381 0
186 380 381 0
-381 0
-187 382 -383 0
187 -382 -383 0
-187 -382 383 0
187 382 383 0
-383 0
-228 384 -385 0
228 -384 -385 0
-228 -384 385 0
228 384 385 0
-385 0
-231 386 -387 0
231 -386 -387 0
-231 -386 387 0
231 386 387 0
-387 0
-246 388 -389 0
246 -388 -389 0
-246 -388 389 0
246 388 389 0
-389 0
-249 390 -391 0
249 -390 -391 0
-249 -390 391 0
249 390 391 0
-391 0
-265 392 -393 0
265 -392 -393 0
-265 -392 393 0
265 392 393 0
-393 0
-268 394 -395 0
268 -394 -395 0
-268 -394 395 0
268 394 395 0
-395 0
-271 396 -397 0
271 -396 -397 0
-271 -396 397 0
271 396 397 0
-397 0
-272 398 -399 0
272 -398 -399 0
-272 -398 399 0
272 398 399 0
-399 0
-304 400 -401 0
304 -400 -401 0
-304 -400 401 0
304 400 401 0
-401 0
-307 402 -403 0
307 -402 -403 0
-307 -402 403 0
307 402 403 0
-403 0
-310 404 -405 0
310 -404 -405 0
-310 -404 405 0
310 404 405 0
-405 0
-330 0
332 0
334 0
-336 0
-338 0
340 0
-342 0
-344 0
346 0
-348 0
-350 0
352 0
354 0
-356 0
-358 0
-360 0
-362 0
364 0
-366 0
-368 0
370 0
372 0
-374 0
-376 0
378 0
-380 0
382 0
384 0
386 0
-388 0
390 0
-392 0
-394 0
-396 0
398 0
400 0
402 0
-404 0
6 0
-14 0
-38 0
-56 0
-106 0
-154 0
-179 0
-229 0
-247 0
-266 0
-305 0
